15 33 82
1 2 2
1 3 5
1 5 4
1 8 1
1 10 1
1 12 2
1 13 5
1 15 4
2 5 1
2 7 1
2 12 3
2 15 4
3 4 3
3 6 3
3 12 2
4 7 3
4 9 1
4 15 2
5 9 4
5 10 4
5 11 4
5 15 5
6 7 3
6 12 2
6 13 4
7 11 2
8 9 4
8 10 3
9 14 1
10 15 3
11 12 3
11 15 4
13 14 1
